(set-info :smt-lib-version 2.6)
(set-logic QF_SLIA)
(set-info :source |
Generated by: Dmitry Blotsky1, Federico Mora, Murphy Berzish, Yunhui Zheng, Ifaz Kabir, Vijay Ganesh, Zhengyang Lu
Generated on: 2018-01-24
Generator: StringFuzz
Application: Evaluate string solvers
Target solver: Z3str3, CVC4, Z3str2, Norn
Publications: Blotsky, D., Mora, F., Berzish, M., Zheng, Y., Kabir, I., & Ganesh, V. (2018). Stringfuzz: A fuzzer for string solvers. In CAV 2018.
Description: transformed by StringFuzz, a modular string and regex fuzzer, from an industrial benchmark
|)
(set-info :license "https://creativecommons.org/licenses/by/4.0/")
(set-info :category "random")
(set-info :status unknown)

(declare-const x String)
(declare-const y String)
(assert (= x "r*&:/JTs{$.'iq!PLi<{@&W""M1['\t'FLC2ePp;Dcd'\x0b',kBtpp1m>hh\\\\cr'\x0c'+`X2\\m\\|og(S(egoIF}Al28}[ZFKUP2''{CkR,o_S'%ueq)X@""u_nO9f(&u9oA[2iL9DQFUq?'\n'2yda"))
(assert (str.in_re x (str.to_re "TE")))
(check-sat)

(exit)
